data;

# set of vehicles
set vehicle := a b c d e f g h i j;

# set of nodes
set node1 := 1 2 3 4 5 6 7 8 9 10 11 12 13 14 15 16 17 18 19 20;
set node2 := 2 3 4 5 6 7 8 9 10 11 12 13 14 15 16 17 18 19;
set node3 := 1;
set node4 := 20;

# set of arcs
# time interval
param M := 200;

# penalty for arrival time inaccuracy
param p := 1;

# fixed cost of each vehicle
param F := 7;

# cost per mile unit
param cost := 1;

# Accurate arrival time
param  arrtime :=
        2 20
	   	3 20
		4 20
		5 20
		6 20
		7 20
		8 30
		9 30
		10 30
		11 30
		12 30
		13 30
		14 40
		15 40
		16 40
		17 40
		18 40
		19 40;

# time window interval
param    a:=
  		1 0
        2 20
	   	3 20
		4 20
		5 20
		6 20
		7 20
		8 30
		9 30
		10 30
		11 30
		12 30
		13 30
		14 40
		15 40
		16 40
		17 40
		18 40
		19 40
		20 0; 
param    b:=
        1 400
        2 30
	    3 30
		4 30
		5 30
		6 30
		7 30
		8 40
		9 40
		10 40
		11 40
		12 40
		13 40
		14 50
		15 50
		16 50
		17 50
		18 50
		19 50
		20 400;

# travel time
param     t :=
       2 2 0   2 3 5   2 4 9   2 5 5   2 6 5   2 7 10   2 8 8   2 9 7   2 10 9   2 11 10   2 12 7   2 13 13   2 14 11   2 15 10   2 16 13   2 17 12   2 18 15   2 19 9
       3 2 5   3 3 0   3 4 6   3 5 3   3 6 6   3 7 10   3 8 11   3 9 11   3 10 12   3 11 12   3 12 10   3 13 13   3 14 12   3 15 12   3 16 13   3 17 14   3 18 15   3 19 11
       4 2 9   4 3 6   4 4 0   4 5 4   4 6 5   4 7 8   4 8 14   4 9 12   4 10 14   4 11 13   4 12 11   4 13 14   4 14 13   4 15 14   4 16 14   4 17 16   4 18 13   4 19 12
       5 2 5   5 3 3   5 4 4   5 5 0   5 6 3   5 7 8   5 8 11   5 9 10   5 10 12   5 11 13   5 12 10   5 13 14   5 14 11   5 15 11   5 16 12   5 17 13   5 18 12   5 19 9
       6 2 5   6 3 6   6 4 5   6 5 3   6 6 0   6 7 5   6 8 11   6 9 10   6 10 11   6 11 13   6 12 9   6 13 14   6 14 8   6 15 10   6 16 10   6 17 12   6 18 12   6 19 8
       7 2 10   7 3 10   7 4 8   7 5 8   7 6 5   7 7 0   7 8 15   7 9 14   7 10 15   7 11 17   7 12 14   7 13 15   7 14 7   7 15 9   7 16 8   7 17 11   7 18 11   7 19 9
       8 2 8   8 3 11   8 4 14   8 5 11   8 6 11   8 7 6   8 8 0   8 9 6   8 10 8   8 11 10   8 12 6   8 13 10   8 14 14   8 15 11   8 16 16   8 17 8   8 18 16   8 19 10
       9 2 7   9 3 11   9 4 12   9 5 10   9 6 10   9 7 8   9 8 6   9 9 0   9 10 3   9 11 5   9 12 3   9 13 9   9 14 13   9 15 13   9 16 14   9 17 10   9 18 15   9 19 10
       10 2 9   10 3 12   10 4 14   10 5 12   10 6 11   10 7 10   10 8 8   10 9 3   10 10 0   10 11 4   10 12 4   10 13 8   10 14 16   10 15 13   10 16 15   10 17 10   10 18 15   10 19 13
       11 2 10   11 3 12   11 4 13   11 5 13   11 6 13   11 7 6   11 8 10   11 9 5   11 10 4   11 11 0   11 12 6   11 13 9   11 14 17   11 15 14   11 16 16   11 17 11   11 18 17   11 19 13
       12 2 7   12 3 10   12 4 11   12 5 10   12 6 9   12 7 10   12 8 6   12 9 3   12 10 4   12 11 6   12 12 0   12 13 11   12 14 13   12 15 12   12 16 14   12 17 11   12 18 15   12 19 9
       13 2 13   13 3 13   13 4 14   13 5 14   13 6 14   13 7 15   13 8 10   13 9 9   13 10 8   13 11 9   13 12 11   13 13 0   13 14 14   13 15 8   13 16 12   13 17 7   13 18 12   13 19 11
       14 2 11   14 3 12   14 4 13   14 5 11   14 6 8   14 7 7   14 8 14   14 9 13   14 10 16   14 11 17   14 12 13   14 13 14   14 14 0   14 15 7   14 16 5   14 17 8   14 18 6   14 19 6
       15 2 10   15 3 12   15 4 14   15 5 11   15 6 10   15 7 9   15 8 11   15 9 13   15 10 13   15 11 14   15 12 12   15 13 8   15 14 7   15 15 0   15 16 4   15 17 5   15 18 6   15 19 5
       16 2 13   16 3 13   16 4 14   16 5 12   16 6 10   16 7 8   16 8 16   16 9 14   16 10 15   16 11 16   16 12 14   16 13 12   16 14 5   16 15 4   16 16 0   16 17 7   16 18 3   16 19 8
       17 2 12   17 3 14   17 4 16   17 5 13   17 6 12   17 7 11   17 8 8   17 9 10   17 10 10   17 11 11   17 12 11   17 13 7   17 14 8   17 15 5   17 16 7   17 17 0   17 18 10   17 19 8
       18 2 15   18 3 15   18 4 13   18 5 12   18 6 12   18 7 11   18 8 16   18 9 15   18 10 15   18 11 17   18 12 15   18 13 12   18 14 6   18 15 6   18 16 3   18 17 10   18 18 0   18 19 9
       19 2 9   19 3 11   19 4 12   19 5 9   19 6 8   19 7 9   19 8 10   19 9 10   19 10 13   19 11 13   19 12 9   19 13 11   19 14 6   19 15 5   19 16 8   19 17 8   19 18 9   19 19 0;
param      u :=
		1 2 7   1 3 8   1 4 10   1 5 7   1 6 6   1 7 7   1 8 11   1 9 9   1 10 10   1 11 12   1 12 9   1 13 14   1 14 7   1 15 7   1 16 7   1 17 9   1 18 9   1 19 3;
param      v :=
		2 20 7    3 20 8    4 20 10    5 20 7    6 20 6    7 20 7    8 20 11  9 20 9   10 20 10   11 20 12   12 20 9   13 20 14  14 20 7   15 20 7   16 20 7   17 20 9    18 20 9  19 20 3;
		
# travel distance
param  distance1 :=
	2 2 0   2 3 1.5   2 4 2.6   2 5 1.2   2 6 11.5   2 7 2.4   2 8 2.2   2 9 2.7   2 10 3.5   2 11 5.1   2 12 2.5   2 13 5.2   2 14 3.3   2 15 3.9   2 16 3.7   2 17 5   2 18 4.5   2 19 2.2
	3 2 1.5   3 3 0   3 4 1.7   3 5 0.9   3 6 1.9   3 7 3.3   3 8 3.5   3 9 3.9   3 10 4.8   3 11 6.8   3 12 3.8   3 13 10.9   3 14 4   3 15 4.7   3 16 4.9   3 17 5.3   3 18 5.8   3 19 2.9
	4 2 2.6   4 3 1.7   4 4 0   4 5 0.9   4 6 1.9   4 7 2.4   4 8 4.2   4 9 5.3   4 10 5.6   4 11 6.7   4 12 5.1   4 13 10.9   4 14 4.4   4 15 5.4   4 16 7.1   4 17 6.1   4 18 8.1   4 19 3.7
	5 2 1.2   5 3 0.9   5 4 1.3   5 5 0   5 6 1.1   5 7 2.3   5 8 3.1   5 9 3.6   5 10 4.4   5 11 7   5 12 3.7   5 13 11.1   5 14 3.7   5 15 4.5   5 16 4.5   5 17 5.1   5 18 8   5 19 2.7
	6 2 1.5   6 3 1.9   6 4 1.9   6 5 1.1   6 6 0   6 7 2.2   6 8 3.1   6 9 3.6   6 10 4.5   6 11 5.5   6 12 3.5   6 13 10.4   6 14 2.9   6 15 4   6 16 3.7   6 17 4.8   6 18 4.7   6 19 1.9
	7 2 2.4   7 3 3.3   7 4 2.4   7 5 2.3   7 6 2.2   7 7 0   7 8 4.6   7 9 5.1   7 10 5.9   7 11 8.5   7 12 4.9   7 13 7.1   7 14 2.6   7 15 3.6   7 16 3.4   7 17 4.4   7 18 4.3   7 19 2.7
	8 2 2.2   8 3 3.5   8 4 4.2   8 5 3.1   8 6 3.1   8 7 4.6   8 8 0   8 9 1.3   8 10 1   8 11 2   8 12 1.2   8 13 3.4   8 14 5.3   8 15 3.8   8 16 6.4   8 17 2.9   8 18 6.6   8 19 2.7
	9 2 2.7   9 3 3.9   9 4 5.3   9 5 3.6   9 6 3.6   9 7 5.1   9 8 1.3   9 9 0   9 10 2.2   9 11 2   9 12 0.5   9 13 4.8   9 14 4.4   9 15 5.2   9 16 4.9   9 17 4.2   9 18 6.6   9 19 3.5
	10 2 3.5   10 3 4.8   10 4 5.6   10 5 4.4   10 6 4.5   10 7 5.9   10 8 1.2   10 9 1   10 10 0   10 11 1.7   10 12 1.4   10 13 4.7   10 14 6.6   10 15 5.1   10 16 6.3   10 17 42   10 18 8.3   10 19 5.1
	11 2 5.1   11 3 6.8   11 4 6.7   11 5 7   11 6 5.5   11 7 8.5   11 8 3.5   11 9 2   11 10 1.7   11 11 0   11 12 2.4   11 13 5.3   11 14 7.3   11 15 5.8   11 16 7   11 17 4.1   11 18 7.3   11 19 5.4
	12 2 2.5   12 3 3.8   12 4 5.1   12 5 3.7   12 6 3.5   12 7 4.9   12 8 1.2   12 9 0.5   12 10 1.4   12 11 2.4   12 12 0   12 13 4.2   12 14 4.1   12 15 4.4   12 16 14   12 17 4.1   12 18 5.4   12 19 3.2
	13 2 5.2   13 3 10.9   13 4 10.9   13 5 11.1   13 6 10.4   13 7 7.1   13 8 3.4   13 9 4.8   13 10 4.7   13 11 5.3   13 12 4.2   13 13 0   13 14 5.9   13 15 3.9   13 16 4.9   13 17 3.1   13 18 5.1   13 19 4.3
	14 2 3.3   14 3 4   14 4 4.4   14 5 3.7   14 6 2.9   14 7 2.6   14 8 5.3   14 9 4.4   14 10 6.6   14 11 7.3   14 12 4.1   14 13 5.9   14 14 0   14 15 1.9   14 16 1.3   14 17 2.6   14 18 2.2   14 19 1.4
	15 2 3.9   15 3 4.7   15 4 5.4   15 5 4.5   15 6 4   15 7 3.6   15 8 3.8   15 9 5.2   15 10 5.1   15 11 5.8   15 12 4.4   15 13 3.9   15 14 1.9   15 15 0   15 16 1.2   15 17 1.1   15 18 2   15 19 2
	16 2 3.7   16 3 4.9   16 4 7.1   16 5 4.5   16 6 3.7   16 7 3.4   16 8 6.4   16 9 4.9   16 10 6.3   16 11 7   16 12 14   16 13 4.9   16 14 1.3   16 15 1.2   16 16 0   16 17 2.3   16 18 0.9   16 19 2.6
	17 2 5   17 3 5.3   17 4 6.1   17 5 5.1   17 6 4.8   17 7 4.4   17 8 2.9   17 9 4.2   17 10 42   17 11 4.1   17 12 4.1   17 13 3.1   17 14 2.6   17 15 1.1   17 16 2.3   17 17 0   17 18 3.6   17 19 2.6
	18 2 4.5   18 3 5.8   18 4 8.1   18 5 8   18 6 4.7   18 7 4.3   18 8 6.6   18 9 6.6   18 10 8.3   18 11 7.3   18 12 5.4   18 13 5.1   18 14 2.2   18 15 2   18 16 0.9   18 17 3.6   18 18 0   18 19 3.1
	19 2 2.2   19 3 2.9   19 4 3.7   19 5 2.7   19 6 1.9   19 7 2.7   19 8 2.7   19 9 3.5   19 10 5.1   19 11 5.4   19 12 3.2   19 13 4.3   19 14 1.4   19 15 2   19 16 2.6   19 17 2.6   19 18 3.1   19 19 0;
	
param  distance2 :=
	1 2 1.7   1 3 2.6   1 4 3   1 5 7   1 6 1.4   1 7 2.4   1 8 2.7   1 9 2.9   1 10 3.8   1 11 4.8   1 12 2.8   1 13 4.8   1 14 1.6   1 15 2.5   1 16 2.1   1 17 3.1   1 18 2.9   1 19 0.6  1 20 0;
param  distance3 :=
	2 20 1.7    3 20 2.6    4 20 3    5 20 7    6 20 1.4    7 20 2.4    8 20 2.7  9 20 2.9   10 20 3.8   11 20 4.8   12 20 2.8   13 20 4.8  14 20 1.6   15 20 2.5   16 20 2.1   17 20 3.1    18 20 2.9  19 20 0.6;
	
	
	
	


  
 